1
0
150
0
1 1 1
200 200 20
7.3442425684828e+11
7.6106243286215e+11
7.8866679758061e+11
8.1727239546813e+11
8.4691554208093e+11
8.7763387017054e+11
9.0946637745953e+11
9.4245347615018e+11
9.7663704422881e+11
1.0120604786310e+12
1.0487687503351e+12
1.0868084614540e+12
1.1262279043981e+12
1.1670771231832e+12
1.2094079769632e+12
1.2532742058663e+12
1.2987314992198e+12
1.3458375662491e+12
1.3946522093406e+12
1.4452373999632e+12
1.4976573573421e+12
1.5519786299871e+12
1.6082701801774e+12
1.6666034715113e+12
1.7270525596310e+12
1.7896941862381e+12
1.8546078765192e+12
1.9218760401055e+12
1.9915840756936e+12
2.0638204794617e+12
2.1386769574174e+12
2.2162485418215e+12
2.2966337118332e+12
2.3799345185328e+12
2.4662567144774e+12
2.5557098879573e+12
2.6484076021204e+12
2.7444675391444e+12
2.8440116496369e+12
2.9471663074550e+12
3.0540624701404e+12
3.1648358451730e+12
3.2796270622558e+12
3.3985818518472e+12
3.5218512301702e+12
3.6495916909313e+12
3.7819654039933e+12
3.9191404212541e+12
4.0612908899933e+12
4.2085972739565e+12
4.3612465824587e+12
4.5194326077977e+12
4.6833561712785e+12
4.8532253781611e+12
5.0292558818556e+12
5.2116711576998e+12
5.4007027866672e+12
5.5965907493649e+12
5.7995837306955e+12
6.0099394355689e+12
6.2279249160654e+12
6.4538169104656e+12
6.6879021945764e+12
6.9304779458012e+12
7.1818521204135e+12
7.4423438445160e+12
7.7122838191796e+12
7.9920147402767e+12
8.2818917335428e+12
8.5822828054182e+12
8.8935693102411e+12
9.2161464343879e+12
9.5504236979717e+12
9.8968254747394e+12
1.0255791530825e+13
1.0627777583045e+13
1.1013255877442e+13
1.1412715788813e+13
1.1826664441984e+13
1.2255627355620e+13
1.2700149109381e+13
1.3160794035286e+13
1.3638146934138e+13
1.4132813817955e+13
1.4645422679309e+13
1.5176624288585e+13
1.5727093020147e+13
1.6297527708477e+13
1.6888652535361e+13
1.7501217949261e+13
1.8136001618022e+13
1.8793809416149e+13
1.9475476447882e+13
2.0181868107383e+13
2.0913881177376e+13
2.1672444967639e+13
2.2458522494785e+13
2.3273111704834e+13
2.4117246740140e+13
2.4991999252251e+13
2.5898479762409e+13
2.6837839071377e+13
2.7811269720418e+13
2.8820007505252e+13
2.9865333044935e+13
3.0948573407635e+13
3.2071103795382e+13
3.3234349289923e+13
3.4439786661899e+13
3.5688946245648e+13
3.6983413881999e+13
3.8324832931542e+13
3.9714906360915e+13
4.1155398904771e+13
4.2648139306144e+13
4.4195022638098e+13
4.5798012709562e+13
4.7459144558445e+13
4.9180527035163e+13
5.0964345479885e+13
5.2812864496878e+13
5.4728430829479e+13
5.6713476339352e+13
5.8770521093796e+13
6.0902176565037e+13
6.3111148945565e+13
6.5400242583708e+13
6.7772363543833e+13
7.0230523295669e+13
7.2777842537444e+13
7.5417555157697e+13
7.8153012340780e+13
8.0987686821279e+13
8.3925177292740e+13
8.6969212976301e+13
9.0123658355042e+13
9.3392518080043e+13
9.6779942054396e+13
1.0029023070161e+14
1.0392784042514e+14
1.0769738926584e+14
1.1160366276477e+14
1.1565162003851e+14
1.1984640007491e+14
1.2419332825716e+14
1.2869792312452e+14
1.3336590337822e+14
1.3820319514155e+14
1.4321593948316e+14
1.4841050021338e+14
1.5379347196319e+14
1.5937168855631e+14
1.6515223168489e+14
1.7114243989994e+14
1.7734991792778e+14
1.8378254632445e+14
1.9044849148029e+14
1.9735621598737e+14
2.0451448938300e+14
2.1193239928286e+14
2.1961936291797e+14
2.2758513909014e+14
2.3583984056097e+14
2.4439394689034e+14
2.5325831774041e+14
2.6244420666229e+14
2.7196327538272e+14
2.8182760860891e+14
2.9204972937043e+14
3.0264261491748e+14
3.1361971319589e+14
3.2499495991961e+14
3.3678279626247e+14
3.4899818719166e+14
3.6165664046610e+14
3.7477422632399e+14
3.8836759788435e+14
4.0245401228864e+14
4.1705135260912e+14
4.3217815055190e+14
4.4785360998342e+14
4.6409763131025e+14
4.8093083674319e+14
4.9837459647771e+14
5.1645105582395e+14
5.3518316332081e+14
5.5459469986970e+14
5.7471030892499e+14
5.9555552777959e+14
6.1715681998514e+14
6.3954160894823e+14
6.6273831274511e+14
6.8677638019920e+14
7.1168632826712e+14
7.3749978078079e+14
7.6424950859471e+14
7.9196947118938e+14
8.2069485978383e+14
8.5046214201170e+14
8.8187886347057e+14
9.1329558492943e+14
9.0985483967097e-01
9.1844408665949e-01
9.2698649463163e-01
9.3548231901065e-01
9.4393181382694e-01
9.5233523172559e-01
9.6069282397398e-01
9.6900484046925e-01
9.7727152974582e-01
9.8549313898279e-01
9.9366991401134e-01
1.0018020993221e+00
1.0098899380723e+00
1.0179336720935e+00
1.0259335418982e+00
1.0338897866873e+00
1.0418026443577e+00
1.0496723515085e+00
1.0574991434488e+00
1.0652832542046e+00
1.0730249165255e+00
1.0807243618921e+00
1.0883818205225e+00
1.0959975213794e+00
1.1035716921769e+00
1.1111045593875e+00
1.1185963482484e+00
1.1260472827689e+00
1.1334575857364e+00
1.1408274787235e+00
1.1481571820946e+00
1.1554469150124e+00
1.1626968954442e+00
1.1699073401691e+00
1.1770784647838e+00
1.1842104837092e+00
1.1913036101972e+00
1.1983580563366e+00
1.2053740330597e+00
1.2123517501485e+00
1.2192914162411e+00
1.2261932388376e+00
1.2330574243070e+00
1.2398841778925e+00
1.2466737037183e+00
1.2534262047954e+00
1.2601418830278e+00
1.2668209392182e+00
1.2734635730748e+00
1.2800699832162e+00
1.2866403671782e+00
1.2931749214193e+00
1.2996738413268e+00
1.3061373212224e+00
1.3125655543680e+00
1.3189587329718e+00
1.3253170481938e+00
1.3316406901515e+00
1.3379298479258e+00
1.3441847095662e+00
1.3504054620970e+00
1.3565922915226e+00
1.3627453828330e+00
1.3688649200093e+00
1.3749510860295e+00
1.3810040628737e+00
1.3870240315297e+00
1.3930111719982e+00
1.3989656632984e+00
1.4048876834733e+00
1.4107774095949e+00
1.4166350177696e+00
1.4224606831436e+00
1.4282545799078e+00
1.4340168813033e+00
1.4397477596265e+00
1.4454473862341e+00
1.4511159315486e+00
1.4567535650628e+00
1.4623604553455e+00
1.4679367700462e+00
1.4734826759002e+00
1.4789983387334e+00
1.4844839234675e+00
1.4899395941249e+00
1.4953655138336e+00
1.5007618448317e+00
1.5061287484731e+00
1.5114663852314e+00
1.5167749147052e+00
1.5220544956228e+00
1.5273052858470e+00
1.5325274423795e+00
1.5377211213662e+00
1.5428864781012e+00
1.5480236670318e+00
1.5531328417632e+00
1.5582141550628e+00
1.5632677588651e+00
1.5682801374849e+00
1.5707963267949e+00
1.5733087743774e+00
1.5783348193773e+00
1.5833884227664e+00
1.5884697356506e+00
1.5935789099643e+00
1.5987160984749e+00
1.6038814547876e+00
1.6090751333497e+00
1.6142972894554e+00
1.6195480792503e+00
1.6248276597363e+00
1.6301361887761e+00
1.6354738250980e+00
1.6408407283006e+00
1.6462370588576e+00
1.6516629781227e+00
1.6571186483341e+00
1.6626042326198e+00
1.6681198950021e+00
1.6736658004026e+00
1.6792421146475e+00
1.6848490044718e+00
1.6904866375252e+00
1.6961551823762e+00
1.7018548085179e+00
1.7075856863726e+00
1.7133479872970e+00
1.7191418835875e+00
1.7249675484853e+00
1.7308251561811e+00
1.7367148818212e+00
1.7426369015120e+00
1.7485913923254e+00
1.7545785323044e+00
1.7605985004683e+00
1.7666514768177e+00
1.7727376423403e+00
1.7788571790164e+00
1.7850102698237e+00
1.7911970987435e+00
1.7974178507658e+00
1.8036727118949e+00
1.8099618691549e+00
1.8162855105957e+00
1.8226438252979e+00
1.8290370033791e+00
1.8354652359992e+00
1.8419287153663e+00
1.8484276347425e+00
1.8549621884495e+00
1.8615325718743e+00
1.8681389814757e+00
1.8747816147891e+00
1.8814606704336e+00
1.8881763481169e+00
1.8949288486420e+00
1.9017183739127e+00
1.9085451269401e+00
1.9154093118484e+00
1.9223111338807e+00
1.9292507994059e+00
1.9362285159243e+00
1.9432444920738e+00
1.9502989376365e+00
1.9573920635446e+00
1.9645240818870e+00
1.9716952059154e+00
1.9789056500508e+00
1.9861556298900e+00
1.9934453622118e+00
2.0007750649837e+00
2.0081449573684e+00
2.0155552597301e+00
2.0230061936414e+00
2.0304979818899e+00
2.0380308484846e+00
2.0456050186630e+00
2.0532207188972e+00
2.0608781769016e+00
2.0685776216387e+00
2.0763192833268e+00
2.0841033934462e+00
2.0919301847467e+00
2.0997998912541e+00
2.1077127482776e+00
2.1156689924163e+00
2.1236688615670e+00
2.1317125949306e+00
2.1398004330196e+00
2.1479326176656e+00
2.1561093920256e+00
2.1643310005905e+00
2.1725976891912e+00
2.1809097050070e+00
2.1892672965721e+00
2.1976707137838e+00
2.2061202079093e+00
2.2146160315938e+00
2.2231819227563e+00
2.2317478139188e+00
0.0000000000000e+00
3.1415926535898e-01
6.2831853071796e-01
9.4247779607694e-01
1.2566370614359e+00
1.5707963267949e+00
1.8849555921539e+00
2.1991148575129e+00
2.5132741228718e+00
2.8274333882308e+00
3.1415926535898e+00
3.4557519189488e+00
3.7699111843078e+00
4.0840704496667e+00
4.3982297150257e+00
4.7123889803847e+00
5.0265482457437e+00
5.3407075111026e+00
5.6548667764616e+00
5.9690260418206e+00
6.2831853071796e+00
