#============================================================================
# Opacities computed by OpTool        <a^n>=  1.6596E-2  2.2108E-2  7.0178E-2
# Method:   DHS  fmax=  0.000
# Parameters:
#   amin [um]=      0.010 amax [um]=     50.000  na  =   56     apow=   3.5    
#   lmin [um]=      0.100 lmax [um]=  10000.000  nlam=  101     nang=   180
#   porosity =      0.000 p_mantle =      0.000  fmax=  0.0     chop=   0.0
# Composition:
#  Where   mfrac  rho   Material
#  -----   -----  ----  -----------------------------------------------------
#  core    0.496  1.50  c-org
#  core    0.093  4.83  fes
#  core    0.411  3.30  astrosil
#  - - -   - - -  -  -  - - - - - - - - - - - - - - - - - - - - - - - - - - -
#  grain   1.000  2.11  mixture of  3 materials
#----------------------------------------------------------------------------
# Command: /Users/hyp0515/bin/optool -c c-org 0.3966 fes 0.0743 astrosil \
#   0.3291 -a 0.01 50.00000000000001 3.5 -l 0.1 10000 101 -mie -radmc -o \
#   ./opacity_table/
#============================================================================
# Output file formatted for RADMC-3D, dustkappa, no scattering matrix
#    iformat
#    nlambda
#    lambda[um]  kabs [cm^2/g]  ksca [cm^2/g]    g_asymmetry
#============================================================================
           3
         101
   1.000000E-01   6.631516E+03   4.705780E+03   6.840646E-01
   1.122018E-01   6.172968E+03   4.570235E+03   6.892262E-01
   1.258925E-01   5.633458E+03   4.572476E+03   6.841368E-01
   1.412538E-01   4.975838E+03   4.584711E+03   6.801498E-01
   1.584893E-01   3.849185E+03   4.769617E+03   6.737959E-01
   1.778279E-01   3.378740E+03   4.332152E+03   6.971980E-01
   1.995262E-01   3.289238E+03   3.964620E+03   7.058754E-01
   2.238721E-01   3.084196E+03   3.773868E+03   7.034498E-01
   2.511886E-01   2.799063E+03   3.669915E+03   6.953980E-01
   2.818383E-01   2.510750E+03   3.564146E+03   6.890830E-01
   3.162278E-01   2.259228E+03   3.466933E+03   6.814422E-01
   3.548134E-01   1.854346E+03   3.499854E+03   6.628841E-01
   3.981072E-01   1.543745E+03   3.434846E+03   6.526088E-01
   4.466836E-01   1.271120E+03   3.394352E+03   6.424774E-01
   5.011872E-01   1.134749E+03   3.239923E+03   6.431980E-01
   5.623413E-01   1.007664E+03   3.071275E+03   6.415238E-01
   6.309573E-01   9.129117E+02   2.900617E+03   6.392751E-01
   7.079458E-01   8.753310E+02   2.725082E+03   6.400611E-01
   7.943282E-01   8.447988E+02   2.569363E+03   6.437456E-01
   8.912509E-01   7.784921E+02   2.417256E+03   6.428467E-01
   1.000000E+00   7.056860E+02   2.287452E+03   6.382721E-01
   1.122018E+00   6.644477E+02   2.167383E+03   6.362906E-01
   1.258925E+00   6.247656E+02   2.051272E+03   6.394652E-01
   1.412538E+00   6.138996E+02   1.892437E+03   6.430432E-01
   1.584893E+00   6.002890E+02   1.753975E+03   6.430304E-01
   1.778279E+00   5.622387E+02   1.669070E+03   6.397027E-01
   1.995262E+00   5.036299E+02   1.598558E+03   6.388243E-01
   2.238721E+00   4.765966E+02   1.484390E+03   6.408132E-01
   2.511886E+00   4.713544E+02   1.360500E+03   6.450964E-01
   2.818383E+00   5.478932E+02   1.195373E+03   6.619731E-01
   3.162278E+00   5.786016E+02   1.090052E+03   6.687843E-01
   3.548134E+00   4.632881E+02   1.109457E+03   6.415274E-01
   3.981072E+00   3.937518E+02   1.054431E+03   6.396387E-01
   4.466836E+00   3.686476E+02   9.858072E+02   6.435407E-01
   5.011872E+00   3.658771E+02   8.989906E+02   6.552978E-01
   5.623413E+00   4.124928E+02   7.644821E+02   6.813348E-01
   6.309573E+00   4.464450E+02   6.783239E+02   6.875937E-01
   7.079458E+00   4.038555E+02   6.387161E+02   6.864287E-01
   7.943282E+00   4.240168E+02   5.226720E+02   7.225353E-01
   8.912509E+00   5.707060E+02   3.894780E+02   7.504375E-01
   1.000000E+01   6.701533E+02   3.781493E+02   7.138792E-01
   1.122018E+01   6.371625E+02   3.852435E+02   6.863877E-01
   1.258925E+01   5.724133E+02   3.750798E+02   6.769658E-01
   1.412538E+01   5.425341E+02   3.477991E+02   6.742019E-01
   1.584893E+01   5.543692E+02   3.228371E+02   6.605391E-01
   1.778279E+01   5.276846E+02   3.153157E+02   6.401639E-01
   1.995262E+01   4.879866E+02   3.063310E+02   6.240368E-01
   2.238721E+01   4.521851E+02   2.873751E+02   6.182824E-01
   2.511886E+01   4.395475E+02   2.637536E+02   6.115903E-01
   2.818383E+01   4.305766E+02   2.540365E+02   5.860189E-01
   3.162278E+01   3.909674E+02   2.494825E+02   5.632834E-01
   3.548134E+01   3.472852E+02   2.397426E+02   5.512222E-01
   3.981072E+01   3.157911E+02   2.276666E+02   5.382739E-01
   4.466836E+01   2.831363E+02   2.156194E+02   5.278450E-01
   5.011872E+01   2.560841E+02   2.031658E+02   5.163777E-01
   5.623413E+01   2.296782E+02   1.921004E+02   5.034955E-01
   6.309573E+01   2.050702E+02   1.811977E+02   4.899586E-01
   7.079458E+01   1.819687E+02   1.706405E+02   4.760519E-01
   7.943282E+01   1.603323E+02   1.611351E+02   4.620814E-01
   8.912509E+01   1.402670E+02   1.517097E+02   4.469969E-01
   1.000000E+02   1.211249E+02   1.415572E+02   4.286182E-01
   1.122018E+02   1.040778E+02   1.317044E+02   4.090912E-01
   1.258925E+02   8.938625E+01   1.232896E+02   3.906022E-01
   1.412538E+02   7.409452E+01   1.155201E+02   3.789224E-01
   1.584893E+02   6.090758E+01   1.081702E+02   3.710058E-01
   1.778279E+02   4.923195E+01   9.808657E+01   3.668324E-01
   1.995262E+02   4.017128E+01   8.687346E+01   3.563130E-01
   2.238721E+02   2.932909E+01   7.313682E+01   3.401806E-01
   2.511886E+02   2.320403E+01   5.823160E+01   3.521451E-01
   2.818383E+02   1.793762E+01   4.178377E+01   3.841650E-01
   3.162278E+02   1.114137E+01   2.303979E+01   3.573846E-01
   3.548134E+02   7.182524E+00   1.304381E+01   2.588287E-01
   3.981072E+02   4.971904E+00   7.754352E+00   1.891444E-01
   4.466836E+02   3.663943E+00   4.668753E+00   1.424381E-01
   5.011872E+02   2.672873E+00   2.824525E+00   1.091858E-01
   5.623413E+02   2.040341E+00   1.718675E+00   8.469606E-02
   6.309573E+02   1.593694E+00   1.052799E+00   6.624211E-02
   7.079458E+02   1.265355E+00   6.487142E-01   5.208292E-02
   7.943282E+02   1.018157E+00   4.015657E-01   4.107887E-02
   8.912509E+02   8.342060E-01   2.495726E-01   3.247266E-02
   1.000000E+03   6.835059E-01   1.556047E-01   2.570779E-02
   1.122018E+03   5.660605E-01   9.728694E-02   2.037680E-02
   1.258925E+03   4.670815E-01   6.094667E-02   1.616200E-02
   1.412538E+03   3.842399E-01   3.824084E-02   1.282468E-02
   1.584893E+03   3.133336E-01   2.401648E-02   1.017672E-02
   1.778279E+03   2.528841E-01   1.509172E-02   8.074655E-03
   1.995262E+03   2.028090E-01   9.489430E-03   6.406196E-03
   2.238721E+03   1.617555E-01   5.986859E-03   5.094079E-03
   2.511886E+03   1.287760E-01   3.778785E-03   4.049501E-03
   2.818383E+03   1.026520E-01   2.379895E-03   3.213654E-03
   3.162278E+03   8.159701E-02   1.498628E-03   2.546099E-03
   3.548134E+03   6.468841E-02   9.446586E-04   2.015072E-03
   3.981072E+03   5.145840E-02   5.955666E-04   1.588392E-03
   4.466836E+03   4.110595E-02   3.755242E-04   1.260195E-03
   5.011872E+03   3.299112E-02   2.368092E-04   9.837406E-04
   5.623413E+03   2.661491E-02   1.493507E-04   7.505477E-04
   6.309573E+03   2.167389E-02   9.420350E-05   5.399535E-04
   7.079458E+03   1.773885E-02   5.942369E-05   4.275636E-04
   7.943282E+03   1.457762E-02   3.748710E-05   3.383069E-04
   8.912509E+03   1.202507E-02   2.364992E-05   2.674189E-04
   1.000000E+04   9.935132E-03   1.492128E-05   2.111206E-04
