#============================================================================
# Opacities computed by OpTool        <a^n>=  1.6596E-2  2.2108E-2  7.0178E-2
# Method:   DHS  fmax=  0.000
# Parameters:
#   amin [um]=      0.010 amax [um]=     50.000  na  =   56     apow=   3.5    
#   lmin [um]=      0.100 lmax [um]=  10000.000  nlam=  101     nang=   180
#   porosity =      0.000 p_mantle =      0.000  fmax=  0.0     chop=   0.0
# Composition:
#  Where   mfrac  rho   Material
#  -----   -----  ----  -----------------------------------------------------
#  core    1.000  3.30  astrosil
#  - - -   - - -  -  -  - - - - - - - - - - - - - - - - - - - - - - - - - - -
#  grain   1.000  3.30  mixture of  1 materials
#----------------------------------------------------------------------------
# Command: /Users/hyp0515/bin/optool -c astrosil 0.3291 -a 0.01 \
#   50.00000000000001 3.5 -l 0.1 10000 101 -mie -radmc -o \
#   ./opacity_table/
#============================================================================
# Output file formatted for RADMC-3D, dustkappa, no scattering matrix
#    iformat
#    nlambda
#    lambda[um]  kabs [cm^2/g]  ksca [cm^2/g]    g_asymmetry
#============================================================================
           3
         101
   1.000000E-01   4.233129E+03   3.153664E+03   6.704639E-01
   1.122018E-01   3.981097E+03   3.039584E+03   6.736033E-01
   1.258925E-01   3.716350E+03   2.939707E+03   6.741170E-01
   1.412538E-01   3.433937E+03   2.919536E+03   6.648282E-01
   1.584893E-01   2.783319E+03   3.090724E+03   6.513450E-01
   1.778279E-01   1.951719E+03   3.301604E+03   6.309682E-01
   1.995262E-01   1.286458E+03   3.432788E+03   6.126340E-01
   2.238721E-01   9.459140E+02   3.345802E+03   6.148104E-01
   2.511886E-01   8.873355E+02   3.051150E+03   6.306455E-01
   2.818383E-01   8.519836E+02   2.820736E+03   6.391228E-01
   3.162278E-01   8.128175E+02   2.646403E+03   6.462901E-01
   3.548134E-01   7.612744E+02   2.473952E+03   6.530082E-01
   3.981072E-01   7.108827E+02   2.308537E+03   6.546597E-01
   4.466836E-01   6.721522E+02   2.148797E+03   6.553530E-01
   5.011872E-01   6.444088E+02   2.031832E+03   6.559819E-01
   5.623413E-01   6.068082E+02   1.920352E+03   6.597807E-01
   6.309573E-01   5.636108E+02   1.800879E+03   6.596385E-01
   7.079458E-01   5.332458E+02   1.680631E+03   6.581398E-01
   7.943282E-01   5.119564E+02   1.591282E+03   6.575549E-01
   8.912509E-01   4.817669E+02   1.505725E+03   6.603769E-01
   1.000000E+00   4.482498E+02   1.412660E+03   6.591622E-01
   1.122018E+00   4.245481E+02   1.318860E+03   6.571002E-01
   1.258925E+00   4.070288E+02   1.249900E+03   6.567776E-01
   1.412538E+00   3.831035E+02   1.178894E+03   6.597325E-01
   1.584893E+00   3.589268E+02   1.102974E+03   6.584827E-01
   1.778279E+00   3.414856E+02   1.027629E+03   6.570041E-01
   1.995262E+00   3.291992E+02   9.702666E+02   6.580283E-01
   2.238721E+00   3.108831E+02   9.104481E+02   6.617354E-01
   2.511886E+00   2.933221E+02   8.473799E+02   6.619263E-01
   2.818383E+00   2.810363E+02   7.848672E+02   6.623177E-01
   3.162278E+00   2.723165E+02   7.339672E+02   6.654329E-01
   3.548134E+00   2.595596E+02   6.832086E+02   6.714171E-01
   3.981072E+00   2.443169E+02   6.304609E+02   6.756928E-01
   4.466836E+00   2.316361E+02   5.778994E+02   6.806022E-01
   5.011872E+00   2.218389E+02   5.264140E+02   6.897471E-01
   5.623413E+00   2.153313E+02   4.714497E+02   7.068344E-01
   6.309573E+00   2.111843E+02   4.070594E+02   7.331928E-01
   7.079458E+00   1.984817E+02   3.271675E+02   7.771200E-01
   7.943282E+00   3.041716E+02   1.376669E+02   8.725292E-01
   8.912509E+00   6.011452E+02   1.769631E+02   7.514981E-01
   1.000000E+01   7.442672E+02   2.594968E+02   6.298503E-01
   1.122018E+01   6.072706E+02   2.781439E+02   5.954274E-01
   1.258925E+01   4.760811E+02   2.683777E+02   6.002046E-01
   1.412538E+01   3.773062E+02   2.389868E+02   6.397183E-01
   1.584893E+01   4.059991E+02   1.917734E+02   6.624360E-01
   1.778279E+01   4.633376E+02   1.885987E+02   6.180020E-01
   1.995262E+01   4.495555E+02   2.038687E+02   5.610765E-01
   2.238721E+01   3.989546E+02   2.026779E+02   5.350298E-01
   2.511886E+01   3.559003E+02   1.960179E+02   5.166548E-01
   2.818383E+01   3.181093E+02   1.871345E+02   5.019561E-01
   3.162278E+01   2.856743E+02   1.775698E+02   4.881203E-01
   3.548134E+01   2.578221E+02   1.673664E+02   4.757095E-01
   3.981072E+01   2.332833E+02   1.573126E+02   4.628615E-01
   4.466836E+01   2.108355E+02   1.475317E+02   4.496859E-01
   5.011872E+01   1.905551E+02   1.378712E+02   4.370214E-01
   5.623413E+01   1.722368E+02   1.284829E+02   4.245176E-01
   6.309573E+01   1.555722E+02   1.194721E+02   4.117999E-01
   7.079458E+01   1.403432E+02   1.109089E+02   3.986133E-01
   7.943282E+01   1.263511E+02   1.028389E+02   3.848115E-01
   8.912509E+01   1.133734E+02   9.523652E+01   3.696414E-01
   1.000000E+02   1.012271E+02   8.805345E+01   3.526099E-01
   1.122018E+02   8.985589E+01   8.149242E+01   3.351797E-01
   1.258925E+02   7.922500E+01   7.541808E+01   3.177611E-01
   1.412538E+02   6.928542E+01   6.939968E+01   2.973967E-01
   1.584893E+02   5.974671E+01   6.295123E+01   2.678855E-01
   1.778279E+02   5.110722E+01   5.717085E+01   2.456531E-01
   1.995262E+02   4.338732E+01   5.313901E+01   2.303333E-01
   2.238721E+02   3.513723E+01   4.897911E+01   2.126120E-01
   2.511886E+02   2.886257E+01   4.512855E+01   1.960205E-01
   2.818383E+02   1.998407E+01   4.028916E+01   1.801055E-01
   3.162278E+02   1.573256E+01   3.136717E+01   2.098182E-01
   3.548134E+02   1.208333E+01   2.225296E+01   2.719246E-01
   3.981072E+02   5.391474E+00   9.647009E+00   3.800794E-01
   4.466836E+02   2.662268E+00   4.773976E+00   2.670013E-01
   5.011872E+02   1.717565E+00   2.707618E+00   1.883971E-01
   5.623413E+02   1.231372E+00   1.598357E+00   1.384124E-01
   6.309573E+02   9.303196E-01   9.615436E-01   1.044015E-01
   7.079458E+02   7.268615E-01   5.853815E-01   8.006240E-02
   7.943282E+02   5.803429E-01   3.593240E-01   6.203551E-02
   8.912509E+02   4.683805E-01   2.219800E-01   4.842263E-02
   1.000000E+03   3.803253E-01   1.378198E-01   3.799694E-02
   1.122018E+03   3.105533E-01   8.585383E-02   2.990203E-02
   1.258925E+03   2.544406E-01   5.364268E-02   2.359575E-02
   1.412538E+03   2.091047E-01   3.358818E-02   1.865013E-02
   1.584893E+03   1.722442E-01   2.106649E-02   1.475951E-02
   1.778279E+03   1.421374E-01   1.323027E-02   1.169082E-02
   1.995262E+03   1.174499E-01   8.317752E-03   9.266490E-03
   2.238721E+03   9.719300E-02   5.232913E-03   7.346491E-03
   2.511886E+03   8.049381E-02   3.294414E-03   5.827704E-03
   2.818383E+03   6.668279E-02   2.075494E-03   4.624010E-03
   3.162278E+03   5.527904E-02   1.308010E-03   3.667459E-03
   3.548134E+03   4.585332E-02   8.245235E-04   2.905466E-03
   3.981072E+03   3.804728E-02   5.198868E-04   2.306359E-03
   4.466836E+03   3.158002E-02   3.278574E-04   1.822304E-03
   5.011872E+03   2.621746E-02   2.067912E-04   1.430784E-03
   5.623413E+03   2.177295E-02   1.304489E-04   1.106506E-03
   6.309573E+03   1.808420E-02   8.229850E-05   8.778182E-04
   7.079458E+03   1.502075E-02   5.192376E-05   6.533935E-04
   7.943282E+03   1.247679E-02   3.276164E-05   5.178450E-04
   8.912509E+03   1.036432E-02   2.067225E-05   4.101620E-04
   1.000000E+04   8.579585E-03   1.304509E-05   3.246363E-04
