#============================================================================
# Opacities computed by OpTool        <a^n>=  1.6596E-2  2.2108E-2  7.0178E-2
# Method:   DHS  fmax=  0.000
# Parameters:
#   amin [um]=      0.010 amax [um]=     50.000  na  =   56     apow=   3.5    
#   lmin [um]=      0.100 lmax [um]=  10000.000  nlam=  101     nang=   180
#   porosity =      0.000 p_mantle =      0.000  fmax=  0.0     chop=   0.0
# Composition:
#  Where   mfrac  rho   Material
#  -----   -----  ----  -----------------------------------------------------
#  core    0.184  4.83  fes
#  core    0.816  3.30  astrosil
#  - - -   - - -  -  -  - - - - - - - - - - - - - - - - - - - - - - - - - - -
#  grain   1.000  3.50  mixture of  2 materials
#----------------------------------------------------------------------------
# Command: /Users/hyp0515/bin/optool -c fes 0.0743 astrosil 0.3291 -a \
#   0.01 50.00000000000001 3.5 -l 0.1 10000 101 -mie -radmc -o \
#   ./opacity_table/
#============================================================================
# Output file formatted for RADMC-3D, dustkappa, no scattering matrix
#    iformat
#    nlambda
#    lambda[um]  kabs [cm^2/g]  ksca [cm^2/g]    g_asymmetry
#============================================================================
           3
         101
   1.000000E-01   3.937862E+03   3.233966E+03   6.435213E-01
   1.122018E-01   3.717704E+03   3.146796E+03   6.402175E-01
   1.258925E-01   3.493977E+03   3.048513E+03   6.371317E-01
   1.412538E-01   3.255334E+03   2.999744E+03   6.271257E-01
   1.584893E-01   2.764278E+03   3.089614E+03   6.145743E-01
   1.778279E-01   2.171137E+03   3.174244E+03   6.008630E-01
   1.995262E-01   1.735784E+03   3.161012E+03   5.908995E-01
   2.238721E-01   1.503566E+03   3.018724E+03   5.920064E-01
   2.511886E-01   1.423781E+03   2.809619E+03   5.995543E-01
   2.818383E-01   1.355099E+03   2.630285E+03   6.057322E-01
   3.162278E-01   1.281065E+03   2.463667E+03   6.109161E-01
   3.548134E-01   1.210495E+03   2.302579E+03   6.137927E-01
   3.981072E-01   1.152022E+03   2.152127E+03   6.140953E-01
   4.466836E-01   1.108514E+03   2.023345E+03   6.153172E-01
   5.011872E-01   1.051730E+03   1.906328E+03   6.170349E-01
   5.623413E-01   9.911734E+02   1.791902E+03   6.169877E-01
   6.309573E-01   9.494641E+02   1.675905E+03   6.166074E-01
   7.079458E-01   9.265507E+02   1.567002E+03   6.192127E-01
   7.943282E-01   8.875701E+02   1.473079E+03   6.197465E-01
   8.912509E-01   8.325157E+02   1.392739E+03   6.154911E-01
   1.000000E+00   7.805733E+02   1.326707E+03   6.099355E-01
   1.122018E+00   7.304358E+02   1.262564E+03   6.078996E-01
   1.258925E+00   6.827726E+02   1.192302E+03   6.063605E-01
   1.412538E+00   6.479070E+02   1.116896E+03   6.042014E-01
   1.584893E+00   6.322828E+02   1.048720E+03   6.040557E-01
   1.778279E+00   5.797854E+02   1.010942E+03   5.960429E-01
   1.995262E+00   4.865625E+02   9.950935E+02   5.784051E-01
   2.238721E+00   3.865721E+02   9.966291E+02   5.533665E-01
   2.511886E+00   3.483279E+02   9.611293E+02   5.503013E-01
   2.818383E+00   3.167289E+02   9.084975E+02   5.545805E-01
   3.162278E+00   2.919167E+02   8.462065E+02   5.575121E-01
   3.548134E+00   2.740150E+02   7.818936E+02   5.568192E-01
   3.981072E+00   2.679998E+02   7.303049E+02   5.586222E-01
   4.466836E+00   2.564070E+02   6.788169E+02   5.677074E-01
   5.011872E+00   2.447434E+02   6.256490E+02   5.783733E-01
   5.623413E+00   2.358549E+02   5.673748E+02   5.921230E-01
   6.309573E+00   2.311987E+02   5.038769E+02   6.126600E-01
   7.079458E+00   2.214281E+02   4.338950E+02   6.477449E-01
   7.943282E+00   3.291534E+02   2.442057E+02   7.684047E-01
   8.912509E+00   6.021809E+02   2.130618E+02   7.055779E-01
   1.000000E+01   6.376810E+02   2.897223E+02   5.827249E-01
   1.122018E+01   5.100411E+02   3.010917E+02   5.476541E-01
   1.258925E+01   4.159926E+02   2.891824E+02   5.477005E-01
   1.412538E+01   3.468683E+02   2.657144E+02   5.769098E-01
   1.584893E+01   3.673308E+02   2.234055E+02   5.983968E-01
   1.778279E+01   3.993965E+02   2.127547E+02   5.650311E-01
   1.995262E+01   3.741465E+02   2.183846E+02   5.172164E-01
   2.238721E+01   3.333333E+02   2.123056E+02   4.939348E-01
   2.511886E+01   2.996773E+02   2.026948E+02   4.766247E-01
   2.818383E+01   2.706625E+02   1.911147E+02   4.644293E-01
   3.162278E+01   2.478342E+02   1.786933E+02   4.551306E-01
   3.548134E+01   2.256941E+02   1.686214E+02   4.372857E-01
   3.981072E+01   2.066049E+02   1.588623E+02   4.164835E-01
   4.466836E+01   1.883046E+02   1.478002E+02   4.039766E-01
   5.011872E+01   1.710050E+02   1.373003E+02   3.910563E-01
   5.623413E+01   1.556179E+02   1.273131E+02   3.775529E-01
   6.309573E+01   1.418641E+02   1.177909E+02   3.640138E-01
   7.079458E+01   1.292735E+02   1.087505E+02   3.505550E-01
   7.943282E+01   1.176210E+02   1.002815E+02   3.353277E-01
   8.912509E+01   1.068437E+02   9.236119E+01   3.193374E-01
   1.000000E+02   9.679536E+01   8.484040E+01   3.021181E-01
   1.122018E+02   8.719470E+01   7.753450E+01   2.821357E-01
   1.258925E+02   7.832086E+01   7.073585E+01   2.615301E-01
   1.412538E+02   7.039919E+01   6.451225E+01   2.428851E-01
   1.584893E+02   6.277152E+01   5.827635E+01   2.222119E-01
   1.778279E+02   5.518561E+01   5.142204E+01   1.916195E-01
   1.995262E+02   4.889410E+01   4.509920E+01   1.672809E-01
   2.238721E+02   4.339494E+01   3.968679E+01   1.441174E-01
   2.511886E+02   3.718340E+01   3.475292E+01   1.221286E-01
   2.818383E+02   3.180086E+01   3.070774E+01   1.139719E-01
   3.162278E+02   2.586190E+01   2.703752E+01   1.065576E-01
   3.548134E+02   2.082724E+01   1.967038E+01   1.103085E-01
   3.981072E+02   1.637043E+01   1.236828E+01   1.711690E-01
   4.466836E+02   1.135765E+01   6.663572E+00   3.197741E-01
   5.011872E+02   6.281215E+00   3.308304E+00   2.813715E-01
   5.623413E+02   4.208431E+00   1.855216E+00   2.077192E-01
   6.309573E+02   3.159159E+00   1.095468E+00   1.542702E-01
   7.079458E+02   2.501043E+00   6.621612E-01   1.169418E-01
   7.943282E+02   2.038541E+00   4.055834E-01   9.007933E-02
   8.912509E+02   1.681394E+00   2.505485E-01   7.018705E-02
   1.000000E+03   1.396307E+00   1.557377E-01   5.516486E-02
   1.122018E+03   1.167456E+00   9.720451E-02   4.357373E-02
   1.258925E+03   9.746949E-01   6.087449E-02   3.457768E-02
   1.412538E+03   8.131240E-01   3.822167E-02   2.753441E-02
   1.584893E+03   6.711150E-01   2.404609E-02   2.199008E-02
   1.778279E+03   5.446106E-01   1.514699E-02   1.759011E-02
   1.995262E+03   4.351447E-01   9.546954E-03   1.406895E-02
   2.238721E+03   3.401590E-01   6.016653E-03   1.123266E-02
   2.511886E+03   2.625439E-01   3.792089E-03   8.954889E-03
   2.818383E+03   2.009496E-01   2.390267E-03   7.129752E-03
   3.162278E+03   1.515402E-01   1.506488E-03   5.666312E-03
   3.548134E+03   1.126292E-01   9.493450E-04   4.499089E-03
   3.981072E+03   8.342577E-02   5.982519E-04   3.564644E-03
   4.466836E+03   6.174899E-02   3.770133E-04   2.817676E-03
   5.011872E+03   4.577676E-02   2.376130E-04   2.217662E-03
   5.623413E+03   3.405898E-02   1.497746E-04   1.757145E-03
   6.309573E+03   2.576403E-02   9.440982E-05   1.369056E-03
   7.079458E+03   1.964784E-02   5.952014E-05   1.042125E-03
   7.943282E+03   1.508271E-02   3.753011E-05   8.252510E-04
   8.912509E+03   1.165357E-02   2.366767E-05   6.534401E-04
   1.000000E+04   9.068953E-03   1.492731E-05   5.172665E-04
