#============================================================================
# Opacities computed by OpTool        <a^n>=  1.6596E-2  2.2108E-2  7.0178E-2
# Method:   DHS  fmax=  0.000
# Parameters:
#   amin [um]=      0.010 amax [um]=     50.000  na  =   56     apow=   3.5    
#   lmin [um]=      0.100 lmax [um]=  10000.000  nlam=  101     nang=   180
#   porosity =      0.000 p_mantle =      0.000  fmax=  0.0     chop=   0.0
# Composition:
#  Where   mfrac  rho   Material
#  -----   -----  ----  -----------------------------------------------------
#  core    0.200  0.92  h2o-w
#  core    0.397  1.50  c-org
#  core    0.074  4.83  fes
#  core    0.329  3.30  astrosil
#  - - -   - - -  -  -  - - - - - - - - - - - - - - - - - - - - - - - - - - -
#  grain   1.000  1.68  mixture of  4 materials
#----------------------------------------------------------------------------
# Command: /Users/hyp0515/bin/optool -c h2o-w 0.2 c-org 0.3966 fes 0.0743 \
#   astrosil 0.3291 -a 0.01 50.00000000000001 3.5 -l 0.1 10000 101 -mie \
#   -radmc -o ./opacity_table/
#============================================================================
# Output file formatted for RADMC-3D, dustkappa, no scattering matrix
#    iformat
#    nlambda
#    lambda[um]  kabs [cm^2/g]  ksca [cm^2/g]    g_asymmetry
#============================================================================
           3
         101
   1.000000E-01   7.803669E+03   5.223231E+03   7.352472E-01
   1.122018E-01   7.236526E+03   5.141902E+03   7.375898E-01
   1.258925E-01   6.599164E+03   5.206041E+03   7.298908E-01
   1.412538E-01   6.207753E+03   5.061311E+03   7.244420E-01
   1.584893E-01   4.353500E+03   5.929538E+03   6.902353E-01
   1.778279E-01   3.466305E+03   5.430645E+03   7.174665E-01
   1.995262E-01   3.377487E+03   4.890738E+03   7.312889E-01
   2.238721E-01   3.160818E+03   4.619410E+03   7.326662E-01
   2.511886E-01   2.838881E+03   4.475364E+03   7.285674E-01
   2.818383E-01   2.504441E+03   4.327526E+03   7.234881E-01
   3.162278E-01   2.233503E+03   4.171789E+03   7.169842E-01
   3.548134E-01   1.816129E+03   4.193892E+03   7.033781E-01
   3.981072E-01   1.482983E+03   4.136130E+03   6.979232E-01
   4.466836E-01   1.167814E+03   4.039691E+03   6.917365E-01
   5.011872E-01   1.034650E+03   3.814073E+03   6.896913E-01
   5.623413E-01   9.372581E+02   3.619422E+03   6.875585E-01
   6.309573E-01   8.422121E+02   3.475967E+03   6.889904E-01
   7.079458E-01   7.841459E+02   3.246932E+03   6.933353E-01
   7.943282E-01   7.505219E+02   3.019109E+03   6.914480E-01
   8.912509E-01   7.102021E+02   2.843057E+03   6.890585E-01
   1.000000E+00   6.409422E+02   2.735737E+03   6.894841E-01
   1.122018E+00   5.862304E+02   2.566907E+03   6.922111E-01
   1.258925E+00   5.472799E+02   2.392975E+03   6.900003E-01
   1.412538E+00   5.577833E+02   2.214906E+03   6.909677E-01
   1.584893E+00   5.474508E+02   2.088598E+03   6.952915E-01
   1.778279E+00   4.980199E+02   1.963457E+03   6.969363E-01
   1.995262E+00   4.538192E+02   1.835445E+03   6.947238E-01
   2.238721E+00   4.406008E+02   1.697631E+03   6.970870E-01
   2.511886E+00   4.412285E+02   1.555656E+03   7.093969E-01
   2.818383E+00   6.012745E+02   1.193251E+03   7.622453E-01
   3.162278E+00   1.163443E+03   1.057082E+03   7.222448E-01
   3.548134E+00   4.800224E+02   1.346086E+03   6.750841E-01
   3.981072E+00   4.030775E+02   1.248377E+03   6.873254E-01
   4.466836E+00   4.185028E+02   1.109643E+03   6.990297E-01
   5.011872E+00   3.649157E+02   1.040058E+03   6.990842E-01
   5.623413E+00   4.368519E+02   8.699374E+02   7.268115E-01
   6.309573E+00   5.159108E+02   7.597213E+02   7.362055E-01
   7.079458E+00   4.534808E+02   7.254963E+02   7.323100E-01
   7.943282E+00   4.501046E+02   6.114311E+02   7.571829E-01
   8.912509E+00   5.890657E+02   4.551591E+02   7.843668E-01
   1.000000E+01   6.990603E+02   4.107688E+02   7.674358E-01
   1.122018E+01   7.850428E+02   3.884213E+02   7.424196E-01
   1.258925E+01   7.526761E+02   4.124486E+02   7.077183E-01
   1.412538E+01   6.527426E+02   4.148945E+02   6.945873E-01
   1.584893E+01   6.101912E+02   3.880079E+02   6.903739E-01
   1.778279E+01   5.702907E+02   3.744635E+02   6.773513E-01
   1.995262E+01   5.240814E+02   3.617368E+02   6.651204E-01
   2.238721E+01   4.711233E+02   3.391214E+02   6.629612E-01
   2.511886E+01   4.562560E+02   3.034813E+02   6.638777E-01
   2.818383E+01   4.603000E+02   2.807552E+02   6.495190E-01
   3.162278E+01   4.361038E+02   2.695653E+02   6.318185E-01
   3.548134E+01   4.048509E+02   2.536367E+02   6.211696E-01
   3.981072E+01   3.874638E+02   2.351809E+02   6.092188E-01
   4.466836E+01   3.956331E+02   2.098348E+02   5.962699E-01
   5.011872E+01   3.526685E+02   2.245107E+02   5.495109E-01
   5.623413E+01   2.886863E+02   2.205489E+02   5.395570E-01
   6.309573E+01   2.613951E+02   1.996801E+02   5.382219E-01
   7.079458E+01   2.395160E+02   1.890969E+02   5.181353E-01
   7.943282E+01   2.010773E+02   1.840173E+02   4.996300E-01
   8.912509E+01   1.679600E+02   1.761565E+02   4.809850E-01
   1.000000E+02   1.398736E+02   1.677981E+02   4.631737E-01
   1.122018E+02   1.154186E+02   1.600230E+02   4.481949E-01
   1.258925E+02   9.343597E+01   1.517522E+02   4.403412E-01
   1.412538E+02   7.377277E+01   1.423211E+02   4.300549E-01
   1.584893E+02   5.806734E+01   1.287999E+02   4.257808E-01
   1.778279E+02   4.584942E+01   1.116165E+02   4.134073E-01
   1.995262E+02   3.353100E+01   9.163622E+01   3.920597E-01
   2.238721E+02   2.582334E+01   7.290837E+01   3.936085E-01
   2.511886E+02   1.947582E+01   5.262439E+01   4.036838E-01
   2.818383E+02   1.281118E+01   3.129375E+01   3.494937E-01
   3.162278E+02   8.748207E+00   1.883479E+01   2.569555E-01
   3.548134E+02   6.401204E+00   1.156982E+01   1.905029E-01
   3.981072E+02   4.670236E+00   7.102226E+00   1.449113E-01
   4.466836E+02   3.505604E+00   4.351594E+00   1.121503E-01
   5.011872E+02   2.564280E+00   2.664007E+00   8.757643E-02
   5.623413E+02   1.949373E+00   1.635652E+00   6.881577E-02
   6.309573E+02   1.509576E+00   1.008543E+00   5.429429E-02
   7.079458E+02   1.186164E+00   6.244490E-01   4.294647E-02
   7.943282E+02   9.439551E-01   3.879278E-01   3.401869E-02
   8.912509E+02   7.663449E-01   2.417324E-01   2.697379E-02
   1.000000E+03   6.226579E-01   1.510049E-01   2.140064E-02
   1.122018E+03   5.120632E-01   9.454133E-02   1.698758E-02
   1.258925E+03   4.201575E-01   5.928440E-02   1.348756E-02
   1.412538E+03   3.442435E-01   3.722670E-02   1.071038E-02
   1.584893E+03   2.803305E-01   2.339389E-02   8.504118E-03
   1.778279E+03   2.266116E-01   1.470770E-02   6.750619E-03
   1.995262E+03   1.824328E-01   9.251694E-03   5.358890E-03
   2.238721E+03   1.465501E-01   5.837719E-03   4.259140E-03
   2.511886E+03   1.176607E-01   3.685003E-03   3.383643E-03
   2.818383E+03   9.458181E-02   2.321394E-03   2.681931E-03
   3.162278E+03   7.590663E-02   1.462156E-03   2.128088E-03
   3.548134E+03   6.083681E-02   9.218253E-04   1.683262E-03
   3.981072E+03   4.890834E-02   5.812557E-04   1.324891E-03
   4.466836E+03   3.945818E-02   3.665473E-04   1.030858E-03
   5.011872E+03   3.195738E-02   2.311728E-04   8.175017E-04
   5.623413E+03   2.599299E-02   1.458114E-04   6.181587E-04
   6.309573E+03   2.129166E-02   9.197965E-05   4.340581E-04
   7.079458E+03   1.750808E-02   5.802526E-05   3.434778E-04
   7.943282E+03   1.444274E-02   3.660705E-05   2.715311E-04
   8.912509E+03   1.194954E-02   2.309571E-05   2.143840E-04
   1.000000E+04   9.894610E-03   1.457205E-05   1.689933E-04
