1
0
150
0
1 1 1
200 399 10
7.3612551925236e+11
7.5947684398714e+11
7.8356891789119e+11
8.0842523896037e+11
8.3407005059239e+11
8.6052836523242e+11
8.8782598876873e+11
9.1598954570229e+11
9.4504650511470e+11
9.7502520745993e+11
1.0059548922060e+12
1.0378657263532e+12
1.0707888338578e+12
1.1047563259876e+12
1.1398013326424e+12
1.1759580346661e+12
1.2132616971853e+12
1.2517487040044e+12
1.2914565930927e+12
1.3324240931963e+12
1.3746911616118e+12
1.4182990231589e+12
1.4632902103880e+12
1.5097086050643e+12
1.5575994809676e+12
1.6070095480492e+12
1.6579869979908e+12
1.7105815512070e+12
1.7648445053403e+12
1.8208287852936e+12
1.8785889948500e+12
1.9381814699301e+12
1.9996643335391e+12
2.0630975524559e+12
2.1285429957220e+12
2.1960644949841e+12
2.2657279067525e+12
2.3376011766330e+12
2.4117544055978e+12
2.4882599183572e+12
2.5671923339011e+12
2.6486286382781e+12
2.7326482596833e+12
2.8193331459274e+12
2.9087678443643e+12
3.0010395843534e+12
3.0962383623381e+12
3.1944570296228e+12
3.2957913829349e+12
3.4003402578594e+12
3.5082056252367e+12
3.6194926906199e+12
3.7343099968853e+12
3.8527695300994e+12
3.9749868287429e+12
4.1010810964008e+12
4.2311753180262e+12
4.3653963798926e+12
4.5038751933515e+12
4.6467468225155e+12
4.7941506159923e+12
4.9462303427964e+12
5.1031343325738e+12
5.2650156202734e+12
5.4320320954087e+12
5.6043466560538e+12
5.7821273677246e+12
5.9655476273003e+12
6.1547863321442e+12
6.3500280545899e+12
6.5514632219622e+12
6.7592883023091e+12
6.9737059960245e+12
7.1949254335511e+12
7.4231623793535e+12
7.6586394423621e+12
7.9015862930932e+12
8.1522398876558e+12
8.4108446988649e+12
8.6776529546857e+12
8.9529248842425e+12
9.2369289716301e+12
9.5299422177781e+12
9.8322504106214e+12
1.0144148403840e+13
1.0465940404444e+13
1.0797940269477e+13
1.1140471812135e+13
1.1493869117594e+13
1.1858476868860e+13
1.2234650682948e+13
1.2622757457733e+13
1.3023175729800e+13
1.3436296043648e+13
1.3862521332599e+13
1.4302267311803e+13
1.4755962883695e+13
1.5224050556326e+13
1.5706986874959e+13
1.6205242867353e+13
1.6719304503181e+13
1.7249673168011e+13
1.7796866152333e+13
1.8361417156089e+13
1.8943876809217e+13
1.9544813208701e+13
2.0164812472658e+13
2.0804479312008e+13
2.1464437620268e+13
2.2145331082064e+13
2.2847823800944e+13
2.3572600947103e+13
2.4320369425661e+13
2.5091858566134e+13
2.5887820833781e+13
2.6709032563513e+13
2.7556294717087e+13
2.8430433664313e+13
2.9332301989052e+13
3.0262779320772e+13
3.1222773192488e+13
3.2213219925919e+13
3.3235085544715e+13
3.4289366716669e+13
3.5377091725801e+13
3.6499321475287e+13
3.7657150522206e+13
3.8851708145100e+13
4.0084159445414e+13
4.1355706483861e+13
4.2667589452844e+13
4.4021087886066e+13
4.5417521906517e+13
4.6858253514035e+13
4.8344687913731e+13
4.9878274886536e+13
5.1460510203237e+13
5.3092937083361e+13
5.4777147700343e+13
5.6514784734439e+13
5.8307542974895e+13
6.0157170972952e+13
6.2065472747276e+13
6.4034309543494e+13
6.6065601649541e+13
6.8161330268600e+13
7.0323539451448e+13
7.2554338090106e+13
7.4855901974726e+13
7.7230475915732e+13
7.9680375933274e+13
8.2207991516139e+13
8.4815787952318e+13
8.7506308733505e+13
9.0282178035867e+13
9.3146103279512e+13
9.6100877769150e+13
9.9149383418517e+13
1.0229459356123e+14
1.0553957585078e+14
1.0888749525257e+14
1.1234161713084e+14
1.1590531043346e+14
1.1958205097788e+14
1.2337542484117e+14
1.2728913185772e+14
1.3132698922780e+14
1.3549293524067e+14
1.3979103311572e+14
1.4422547496554e+14
1.4880058588463e+14
1.5352082816783e+14
1.5839080566262e+14
1.6341526825941e+14
1.6859911652434e+14
1.7394740647896e+14
1.7946535453160e+14
1.8515834256517e+14
1.9103192318629e+14
1.9709182514101e+14
2.0334395890226e+14
2.0979442243462e+14
2.1644950714191e+14
2.2331570400339e+14
2.3039970990480e+14
2.3770843416999e+14
2.4524900529994e+14
2.5302877792548e+14
2.6105533998053e+14
2.6933652010294e+14
2.7788039527010e+14
2.8669529867675e+14
2.9578982786266e+14
3.0517285309820e+14
3.1485352603584e+14
3.2484128863619e+14
3.3514588237709e+14
3.4577735775490e+14
3.5674608408715e+14
3.6824514586238e+14
3.7974420763762e+14
5.1927480221525e-01
5.2794655441748e-01
5.3657056468771e-01
5.4514709586694e-01
5.5367640934914e-01
5.6215876508914e-01
5.7059442161065e-01
5.7898363601404e-01
5.8732666398426e-01
5.9562375979859e-01
6.0387517633440e-01
6.1208116507685e-01
6.2024197612656e-01
6.2835785820723e-01
6.3642905867324e-01
6.4445582351715e-01
6.5243839737723e-01
6.6037702354491e-01
6.6827194397218e-01
6.7612339927898e-01
6.8393162876052e-01
6.9169687039461e-01
6.9941936084884e-01
7.0709933548787e-01
7.1473702838056e-01
7.2233267230711e-01
7.2988649876617e-01
7.3739873798188e-01
7.4486961891089e-01
7.5229936924934e-01
7.5968821543980e-01
7.6703638267817e-01
7.7434409492055e-01
7.8161157489005e-01
7.8883904408360e-01
7.9602672277868e-01
8.0317483004004e-01
8.1028358372639e-01
8.1735320049703e-01
8.2438389581842e-01
8.3137588397083e-01
8.3832937805479e-01
8.4524458999761e-01
8.5212173055986e-01
8.5896100934177e-01
8.6576263478962e-01
8.7252681420212e-01
8.7925375373667e-01
8.8594365841572e-01
8.9259673213296e-01
8.9921317765953e-01
9.0579319665027e-01
9.1233698964979e-01
9.1884475609860e-01
9.2531669433922e-01
9.3175300162221e-01
9.3815387411215e-01
9.4451950689367e-01
9.5085009397736e-01
9.5714582830568e-01
9.6340690175889e-01
9.6963350516082e-01
9.7582582828476e-01
9.8198405985919e-01
9.8810838757358e-01
9.9419899808406e-01
1.0002560770191e+00
1.0062798089854e+00
1.0122703775729e+00
1.0182279653613e+00
1.0241527539247e+00
1.0300449238378e+00
1.0359046546811e+00
1.0417321250464e+00
1.0475275125421e+00
1.0532909937992e+00
1.0590227444759e+00
1.0647229392635e+00
1.0703917518915e+00
1.0760293551328e+00
1.0816359208094e+00
1.0872116197971e+00
1.0927566220311e+00
1.0982710965109e+00
1.1037552113056e+00
1.1092091335591e+00
1.1146330294951e+00
1.1200270644221e+00
1.1253914027384e+00
1.1307262079374e+00
1.1360316426123e+00
1.1413078684612e+00
1.1465550462919e+00
1.1517733360269e+00
1.1569628967083e+00
1.1621238865027e+00
1.1672564627056e+00
1.1723607817469e+00
1.1774369991950e+00
1.1824852697619e+00
1.1875057473079e+00
1.1924985848463e+00
1.1974639345477e+00
1.2024019477453e+00
1.2073127749388e+00
1.2121965657996e+00
1.2170534691749e+00
1.2218836330926e+00
1.2266872047656e+00
1.2314643305961e+00
1.2362151561805e+00
1.2409398263138e+00
1.2456384849934e+00
1.2503112754242e+00
1.2549583400227e+00
1.2595798204213e+00
1.2641758574726e+00
1.2687465912538e+00
1.2732921610709e+00
1.2778127054629e+00
1.2823083622061e+00
1.2867792683184e+00
1.2912255600631e+00
1.2956473729536e+00
1.3000448417571e+00
1.3044181004989e+00
1.3087672824662e+00
1.3130925202127e+00
1.3173939455621e+00
1.3216716896126e+00
1.3259258827404e+00
1.3301566546041e+00
1.3343641341483e+00
1.3385484496078e+00
1.3427097285114e+00
1.3468480976859e+00
1.3509636832596e+00
1.3550566106667e+00
1.3591270046507e+00
1.3631749892682e+00
1.3672006878930e+00
1.3712042232196e+00
1.3751857172670e+00
1.3791452913824e+00
1.3830830662451e+00
1.3869991618698e+00
1.3908936976106e+00
1.3947667921644e+00
1.3986185635747e+00
1.4024491292350e+00
1.4062586058927e+00
1.4100471096522e+00
1.4138147559790e+00
1.4175616597026e+00
1.4212879350204e+00
1.4249936955013e+00
1.4286790540886e+00
1.4323441231042e+00
1.4359890142512e+00
1.4396138386181e+00
1.4432187066815e+00
1.4468037283099e+00
1.4503690127670e+00
1.4539146687150e+00
1.4574408042175e+00
1.4609475267436e+00
1.4644349431704e+00
1.4679031597869e+00
1.4713522822967e+00
1.4747824158215e+00
1.4781936649044e+00
1.4815861335126e+00
1.4849599250413e+00
1.4883151423163e+00
1.4916518875972e+00
1.4949702625808e+00
1.4982703684039e+00
1.5015523056465e+00
1.5048161743350e+00
1.5080620739448e+00
1.5112901034040e+00
1.5145003610957e+00
1.5176929448618e+00
1.5208679520051e+00
1.5240254792929e+00
1.5271656229598e+00
1.5302884787105e+00
1.5333941417228e+00
1.5364827066505e+00
1.5395542676265e+00
1.5426089182651e+00
1.5456467516654e+00
1.5486678604139e+00
1.5516723365875e+00
1.5546602717560e+00
1.5576317569853e+00
1.5605868828395e+00
1.5635257393846e+00
1.5664484161904e+00
1.5707963267949e+00
1.5722376070843e+00
1.5751441929832e+00
1.5780668695432e+00
1.5810057258410e+00
1.5839608514467e+00
1.5869323364259e+00
1.5899202713430e+00
1.5929247472639e+00
1.5959458557583e+00
1.5989836889030e+00
1.6020383392846e+00
1.6051099000021e+00
1.6081984646700e+00
1.6113041274211e+00
1.6144269829090e+00
1.6175671263117e+00
1.6207246533339e+00
1.6238996602101e+00
1.6270922437075e+00
1.6303025011292e+00
1.6335305303168e+00
1.6367764296536e+00
1.6400402980674e+00
1.6433222350339e+00
1.6466223405794e+00
1.6499407152838e+00
1.6532774602840e+00
1.6566326772767e+00
1.6600064685216e+00
1.6633989368444e+00
1.6668101856403e+00
1.6702403188765e+00
1.6736894410961e+00
1.6771576574208e+00
1.6806450735543e+00
1.6841517957854e+00
1.6876779309912e+00
1.6912235866409e+00
1.6947888707980e+00
1.6983738921249e+00
1.7019787598850e+00
1.7056035839469e+00
1.7092484747873e+00
1.7129135434945e+00
1.7165989017718e+00
1.7203046619409e+00
1.7240309369453e+00
1.7277778403536e+00
1.7315454863634e+00
1.7353339898042e+00
1.7391434661414e+00
1.7429740314794e+00
1.7468258025657e+00
1.7506988967936e+00
1.7545934322068e+00
1.7585095275020e+00
1.7624473020334e+00
1.7664068758158e+00
1.7703883695282e+00
1.7743919045180e+00
1.7784176028041e+00
1.7824655870810e+00
1.7865359807225e+00
1.7906289077853e+00
1.7947444930128e+00
1.7988828618391e+00
1.8030441403927e+00
1.8072284555002e+00
1.8114359346904e+00
1.8156667061981e+00
1.8199208989680e+00
1.8241986426586e+00
1.8285000676462e+00
1.8328253050288e+00
1.8371744866302e+00
1.8415477450040e+00
1.8459452134375e+00
1.8503670259560e+00
1.8548133173267e+00
1.8592842230629e+00
1.8637798794279e+00
1.8683004234395e+00
1.8728459928742e+00
1.8774167262708e+00
1.8820127629355e+00
1.8866342429453e+00
1.8912813071529e+00
1.8959540971906e+00
1.9006527554749e+00
1.9053774252106e+00
1.9101282503954e+00
1.9149053758240e+00
1.9197089470928e+00
1.9245391106041e+00
1.9293960135709e+00
1.9342798040208e+00
1.9391906308012e+00
1.9441286435833e+00
1.9490939928670e+00
1.9540868299853e+00
1.9591073071089e+00
1.9641555772512e+00
1.9692317942722e+00
1.9743361128840e+00
1.9794686886552e+00
1.9846296780153e+00
1.9898192382602e+00
1.9950375275562e+00
2.0002847049454e+00
2.0055609303504e+00
2.0108663645790e+00
2.0162011693291e+00
2.0215655071942e+00
2.0269595416673e+00
2.0323834371470e+00
2.0378373589417e+00
2.0433214732751e+00
2.0488359472909e+00
2.0543809490584e+00
2.0599566475770e+00
2.0655632127819e+00
2.0712008155490e+00
2.0768696277000e+00
2.0825698220080e+00
2.0883015722025e+00
2.0940650529747e+00
2.0998604399829e+00
2.1056879098579e+00
2.1115476402082e+00
2.1174398096256e+00
2.1233645976906e+00
2.1293221849777e+00
2.1353127530613e+00
2.1413364845208e+00
2.1473935629463e+00
2.1534841729443e+00
2.1596085001435e+00
2.1657667311998e+00
2.1719590538028e+00
2.1781856566809e+00
2.1844467296074e+00
2.1907424634060e+00
2.1970730499571e+00
2.2034386822031e+00
2.2098395541545e+00
2.2162758608960e+00
2.2227477985922e+00
2.2292555644935e+00
2.2357993569425e+00
2.2423793753796e+00
2.2489958203496e+00
2.2556488935071e+00
2.2623387976233e+00
2.2690657365919e+00
2.2758299154354e+00
2.2826315403110e+00
2.2894708185175e+00
2.2963479585012e+00
2.3032631698622e+00
2.3102166633612e+00
2.3172086509254e+00
2.3242393456553e+00
2.3313089618311e+00
2.3384177149194e+00
2.3455658215794e+00
2.3527534996698e+00
2.3599809682553e+00
2.3672484476134e+00
2.3745561592410e+00
2.3819043258611e+00
2.3892931714300e+00
2.3967229211434e+00
2.4041938014438e+00
2.4117060400276e+00
2.4192598658511e+00
2.4268555091386e+00
2.4344932013888e+00
2.4421731753817e+00
2.4498956651862e+00
2.4576609061670e+00
2.4654691349917e+00
2.4733205896379e+00
2.4812155094010e+00
2.4891541349008e+00
2.4971367080893e+00
2.5051634722579e+00
2.5132346720449e+00
2.5213505534428e+00
2.5295113638059e+00
2.5377173518580e+00
2.5459687676996e+00
2.5542658628159e+00
2.5626088900842e+00
2.5709981037818e+00
2.5794337595937e+00
2.5879161146200e+00
2.5964454273847e+00
2.6050219578424e+00
2.6136699046084e+00
2.6223178513745e+00
0.0000000000000e+00
6.2831853071796e-01
1.2566370614359e+00
1.8849555921539e+00
2.5132741228718e+00
3.1415926535898e+00
3.7699111843078e+00
4.3982297150257e+00
5.0265482457437e+00
5.6548667764616e+00
6.2831853071796e+00
