1
0
150
0
1 1 1
200 399 10
7.3612551925236e+11
7.5947684398714e+11
7.8356891789119e+11
8.0842523896037e+11
8.3407005059239e+11
8.6052836523242e+11
8.8782598876873e+11
9.1598954570229e+11
9.4504650511470e+11
9.7502520745993e+11
1.0059548922060e+12
1.0378657263532e+12
1.0707888338578e+12
1.1047563259876e+12
1.1398013326424e+12
1.1759580346661e+12
1.2132616971853e+12
1.2517487040044e+12
1.2914565930927e+12
1.3324240931963e+12
1.3746911616118e+12
1.4182990231589e+12
1.4632902103880e+12
1.5097086050643e+12
1.5575994809676e+12
1.6070095480492e+12
1.6579869979908e+12
1.7105815512070e+12
1.7648445053403e+12
1.8208287852936e+12
1.8785889948500e+12
1.9381814699301e+12
1.9996643335391e+12
2.0630975524559e+12
2.1285429957220e+12
2.1960644949841e+12
2.2657279067525e+12
2.3376011766330e+12
2.4117544055978e+12
2.4882599183572e+12
2.5671923339011e+12
2.6486286382781e+12
2.7326482596833e+12
2.8193331459274e+12
2.9087678443643e+12
3.0010395843534e+12
3.0962383623381e+12
3.1944570296228e+12
3.2957913829349e+12
3.4003402578594e+12
3.5082056252367e+12
3.6194926906199e+12
3.7343099968853e+12
3.8527695300994e+12
3.9749868287429e+12
4.1010810964008e+12
4.2311753180262e+12
4.3653963798926e+12
4.5038751933515e+12
4.6467468225155e+12
4.7941506159923e+12
4.9462303427964e+12
5.1031343325738e+12
5.2650156202734e+12
5.4320320954087e+12
5.6043466560538e+12
5.7821273677246e+12
5.9655476273003e+12
6.1547863321442e+12
6.3500280545899e+12
6.5514632219622e+12
6.7592883023091e+12
6.9737059960245e+12
7.1949254335511e+12
7.4231623793535e+12
7.6586394423621e+12
7.9015862930932e+12
8.1522398876558e+12
8.4108446988649e+12
8.6776529546857e+12
8.9529248842425e+12
9.2369289716301e+12
9.5299422177781e+12
9.8322504106214e+12
1.0144148403840e+13
1.0465940404444e+13
1.0797940269477e+13
1.1140471812135e+13
1.1493869117594e+13
1.1858476868860e+13
1.2234650682948e+13
1.2622757457733e+13
1.3023175729800e+13
1.3436296043648e+13
1.3862521332599e+13
1.4302267311803e+13
1.4755962883695e+13
1.5224050556326e+13
1.5706986874959e+13
1.6205242867353e+13
1.6719304503181e+13
1.7249673168011e+13
1.7796866152333e+13
1.8361417156089e+13
1.8943876809217e+13
1.9544813208701e+13
2.0164812472658e+13
2.0804479312008e+13
2.1464437620268e+13
2.2145331082064e+13
2.2847823800944e+13
2.3572600947103e+13
2.4320369425661e+13
2.5091858566134e+13
2.5887820833781e+13
2.6709032563513e+13
2.7556294717087e+13
2.8430433664313e+13
2.9332301989052e+13
3.0262779320772e+13
3.1222773192488e+13
3.2213219925919e+13
3.3235085544715e+13
3.4289366716669e+13
3.5377091725801e+13
3.6499321475287e+13
3.7657150522206e+13
3.8851708145100e+13
4.0084159445414e+13
4.1355706483861e+13
4.2667589452844e+13
4.4021087886066e+13
4.5417521906517e+13
4.6858253514035e+13
4.8344687913731e+13
4.9878274886536e+13
5.1460510203237e+13
5.3092937083361e+13
5.4777147700343e+13
5.6514784734439e+13
5.8307542974895e+13
6.0157170972952e+13
6.2065472747276e+13
6.4034309543494e+13
6.6065601649541e+13
6.8161330268600e+13
7.0323539451448e+13
7.2554338090106e+13
7.4855901974726e+13
7.7230475915732e+13
7.9680375933274e+13
8.2207991516139e+13
8.4815787952318e+13
8.7506308733505e+13
9.0282178035867e+13
9.3146103279512e+13
9.6100877769150e+13
9.9149383418517e+13
1.0229459356123e+14
1.0553957585078e+14
1.0888749525257e+14
1.1234161713084e+14
1.1590531043346e+14
1.1958205097788e+14
1.2337542484117e+14
1.2728913185772e+14
1.3132698922780e+14
1.3549293524067e+14
1.3979103311572e+14
1.4422547496554e+14
1.4880058588463e+14
1.5352082816783e+14
1.5839080566262e+14
1.6341526825941e+14
1.6859911652434e+14
1.7394740647896e+14
1.7946535453160e+14
1.8515834256517e+14
1.9103192318629e+14
1.9709182514101e+14
2.0334395890226e+14
2.0979442243462e+14
2.1644950714191e+14
2.2331570400339e+14
2.3039970990480e+14
2.3770843416999e+14
2.4524900529994e+14
2.5302877792548e+14
2.6105533998053e+14
2.6933652010294e+14
2.7788039527010e+14
2.8669529867675e+14
2.9578982786266e+14
3.0517285309820e+14
3.1485352603584e+14
3.2484128863619e+14
3.3514588237709e+14
3.4577735775490e+14
3.5674608408715e+14
3.6824514586238e+14
3.7974420763762e+14
6.9493769494363e-01
7.0133869582582e-01
7.0771366553650e-01
7.1406270993754e-01
7.2038593446030e-01
7.2668344410736e-01
7.3295534345430e-01
7.3920173665141e-01
7.4542272742544e-01
7.5161841908129e-01
7.5778891450376e-01
7.6393431615925e-01
7.7005472609745e-01
7.7615024595303e-01
7.8222097694735e-01
7.8826701989014e-01
7.9428847518114e-01
8.0028544281182e-01
8.0625802236697e-01
8.1220631302645e-01
8.1813041356672e-01
8.2403042236260e-01
8.2990643738880e-01
8.3575855622162e-01
8.4158687604054e-01
8.4739149362983e-01
8.5317250538016e-01
8.5893000729022e-01
8.6466409496828e-01
8.7037486363382e-01
8.7606240811906e-01
8.8172682287058e-01
8.8736820195088e-01
8.9298663903990e-01
8.9858222743665e-01
9.0415506006068e-01
9.0970522945368e-01
9.1523282778101e-01
9.2073794683318e-01
9.2622067802745e-01
9.3168111240929e-01
9.3711934065392e-01
9.4253545306780e-01
9.4792953959016e-01
9.5330168979443e-01
9.5865199288981e-01
9.6398053772269e-01
9.6928741277815e-01
9.7457270618141e-01
9.7983650569933e-01
9.8507889874184e-01
9.9029997236339e-01
9.9549981326440e-01
1.0006785077927e+00
1.0058361419450e+00
1.0109728013683e+00
1.0160885713611e+00
1.0211835368754e+00
1.0262577825172e+00
1.0313113925490e+00
1.0363444508902e+00
1.0413570411191e+00
1.0463492464741e+00
1.0513211498551e+00
1.0562728338247e+00
1.0612043806100e+00
1.0661158721036e+00
1.0710073898650e+00
1.0758790151220e+00
1.0807308287723e+00
1.0855629113843e+00
1.0903753431990e+00
1.0951682041308e+00
1.0999415737695e+00
1.1046955313809e+00
1.1094301559086e+00
1.1141455259751e+00
1.1188417198832e+00
1.1235188156172e+00
1.1281768908444e+00
1.1328160229161e+00
1.1374362888690e+00
1.1420377654267e+00
1.1466205290007e+00
1.1511846556917e+00
1.1557302212909e+00
1.1602573012814e+00
1.1647659708393e+00
1.1692563048348e+00
1.1737283778339e+00
1.1781822640992e+00
1.1826180375913e+00
1.1870357719700e+00
1.1914355405956e+00
1.1958174165302e+00
1.2001814725384e+00
1.2045277810892e+00
1.2088564143569e+00
1.2131674442220e+00
1.2174609422730e+00
1.2217369798071e+00
1.2259956278316e+00
1.2302369570650e+00
1.2344610379382e+00
1.2386679405958e+00
1.2428577348969e+00
1.2470304904167e+00
1.2511862764475e+00
1.2553251619995e+00
1.2594472158027e+00
1.2635525063072e+00
1.2676411016850e+00
1.2717130698306e+00
1.2757684783626e+00
1.2798073946246e+00
1.2838298856863e+00
1.2878360183445e+00
1.2918258591246e+00
1.2957994742813e+00
1.2997569298000e+00
1.3036982913975e+00
1.3076236245236e+00
1.3115329943618e+00
1.3154264658306e+00
1.3193041035844e+00
1.3231659720147e+00
1.3270121352513e+00
1.3308426571628e+00
1.3346576013586e+00
1.3384570311889e+00
1.3422410097466e+00
1.3460095998680e+00
1.3497628641337e+00
1.3535008648699e+00
1.3572236641492e+00
1.3609313237922e+00
1.3646239053675e+00
1.3683014701937e+00
1.3719640793399e+00
1.3756117936269e+00
1.3792446736282e+00
1.3828627796708e+00
1.3864661718366e+00
1.3900549099628e+00
1.3936290536438e+00
1.3971886622311e+00
1.4007337948351e+00
1.4042645103259e+00
1.4077808673339e+00
1.4112829242514e+00
1.4147707392330e+00
1.4182443701969e+00
1.4217038748256e+00
1.4251493105674e+00
1.4285807346365e+00
1.4319982040148e+00
1.4354017754523e+00
1.4387915054681e+00
1.4421674503518e+00
1.4455296661638e+00
1.4488782087365e+00
1.4522131336754e+00
1.4555344963597e+00
1.4588423519437e+00
1.4621367553571e+00
1.4654177613062e+00
1.4686854242751e+00
1.4719397985260e+00
1.4751809381007e+00
1.4784088968211e+00
1.4816237282902e+00
1.4848254858931e+00
1.4880142227976e+00
1.4911899919556e+00
1.4943528461034e+00
1.4975028377630e+00
1.5006400192425e+00
1.5037644426378e+00
1.5068761598324e+00
1.5099752224992e+00
1.5130616821008e+00
1.5161355898904e+00
1.5191969969130e+00
1.5222459540058e+00
1.5252825117994e+00
1.5283067207186e+00
1.5313186309828e+00
1.5343182926074e+00
1.5373057554045e+00
1.5402810689833e+00
1.5432442827516e+00
1.5461954459161e+00
1.5491346074833e+00
1.5520618162606e+00
1.5549771208568e+00
1.5578805696830e+00
1.5607722109536e+00
1.5636520926867e+00
1.5665202627052e+00
1.5707963267949e+00
1.5722158612830e+00
1.5750723671187e+00
1.5779405370402e+00
1.5808204186758e+00
1.5837120598486e+00
1.5866155085766e+00
1.5895308130741e+00
1.5924580217524e+00
1.5953971832202e+00
1.5983483462848e+00
1.6013115599528e+00
1.6042868734310e+00
1.6072743361269e+00
1.6102739976501e+00
1.6132859078124e+00
1.6163101166292e+00
1.6193466743201e+00
1.6223956313098e+00
1.6254570382288e+00
1.6285309459144e+00
1.6316174054115e+00
1.6347164679734e+00
1.6378281850628e+00
1.6409526083523e+00
1.6440897897257e+00
1.6472397812787e+00
1.6504026353195e+00
1.6535784043700e+00
1.6567671411667e+00
1.6599688986612e+00
1.6631837300215e+00
1.6664116886327e+00
1.6696528280977e+00
1.6729072022386e+00
1.6761748650969e+00
1.6794558709350e+00
1.6827502742369e+00
1.6860581297090e+00
1.6893794922810e+00
1.6927144171070e+00
1.6960629595664e+00
1.6994251752646e+00
1.7028011200341e+00
1.7061908499352e+00
1.7095944212575e+00
1.7130118905202e+00
1.7164433144732e+00
1.7198887500984e+00
1.7233482546101e+00
1.7268218854565e+00
1.7303097003201e+00
1.7338117571190e+00
1.7373281140081e+00
1.7408588293794e+00
1.7444039618635e+00
1.7479635703304e+00
1.7515377138904e+00
1.7551264518952e+00
1.7587298439391e+00
1.7623479498593e+00
1.7659808297376e+00
1.7696285439012e+00
1.7732911529235e+00
1.7769687176253e+00
1.7806612990757e+00
1.7843689585931e+00
1.7880917577466e+00
1.7918297583563e+00
1.7955830224949e+00
1.7993516124888e+00
1.8031355909185e+00
1.8069350206203e+00
1.8107499646869e+00
1.8145804864689e+00
1.8184266495753e+00
1.8222885178750e+00
1.8261661554976e+00
1.8300596268346e+00
1.8339689965406e+00
1.8378943295339e+00
1.8418356909980e+00
1.8457931463827e+00
1.8497667614050e+00
1.8537566020501e+00
1.8577627345728e+00
1.8617852254984e+00
1.8658241416237e+00
1.8698795500185e+00
1.8739515180264e+00
1.8780401132658e+00
1.8821454036314e+00
1.8862674572951e+00
1.8904063427071e+00
1.8945621285973e+00
1.8987348839759e+00
1.9029246781353e+00
1.9071315806505e+00
1.9113556613808e+00
1.9155969904707e+00
1.9198556383511e+00
1.9241316757405e+00
1.9284251736462e+00
1.9327362033655e+00
1.9370648364867e+00
1.9414111448905e+00
1.9457752007510e+00
1.9501570765373e+00
1.9545568450141e+00
1.9589745792433e+00
1.9634103525853e+00
1.9678642386999e+00
1.9723363115477e+00
1.9768266453913e+00
1.9813353147966e+00
1.9858623946340e+00
1.9904079600794e+00
1.9949720866159e+00
1.9995548500348e+00
2.0041563264369e+00
2.0087765922335e+00
2.0134157241482e+00
2.0180737992177e+00
2.0227508947935e+00
2.0274470885427e+00
2.0321624584497e+00
2.0368970828172e+00
2.0416510402677e+00
2.0464244097449e+00
2.0512172705146e+00
2.0560297021665e+00
2.0608617846150e+00
2.0657135981011e+00
2.0705852231933e+00
2.0754767407892e+00
2.0803882321165e+00
2.0853197787350e+00
2.0902714625371e+00
2.0952433657498e+00
2.1002355709359e+00
2.1052481609952e+00
2.1102812191661e+00
2.1153348290269e+00
2.1204090744971e+00
2.1255040398390e+00
2.1306198096587e+00
2.1357564689082e+00
2.1409141028860e+00
2.1460927972391e+00
2.1512926379642e+00
2.1565137114091e+00
2.1617561042742e+00
2.1670199036140e+00
2.1723051968384e+00
2.1776120717143e+00
2.1829406163669e+00
2.1882909192813e+00
2.1936630693038e+00
2.1990571556436e+00
2.2044732678743e+00
2.2099114959349e+00
2.2153719301320e+00
2.2208546611407e+00
2.2263597800067e+00
2.2318873781469e+00
2.2374375473522e+00
2.2430103797876e+00
2.2486059679951e+00
2.2542244048940e+00
2.2598657837834e+00
2.2655301983433e+00
2.2712177426361e+00
2.2769285111084e+00
2.2826625985924e+00
2.2884201003077e+00
2.2942011118624e+00
2.3000057292553e+00
2.3058340488770e+00
2.3116861675119e+00
2.3175621823392e+00
2.3234621909355e+00
2.3293862912753e+00
2.3353345817335e+00
2.3413071610866e+00
2.3473041285144e+00
2.3533255836016e+00
2.3593716263399e+00
2.3654423571288e+00
2.3715378767781e+00
2.3776582865092e+00
2.3838036879568e+00
2.3899741831705e+00
2.3961698746167e+00
2.4023908651803e+00
2.4086372581660e+00
2.4149091573008e+00
2.4212066667347e+00
2.4275298910435e+00
2.4338789352298e+00
2.4402669469380e+00
2.4466549586462e+00
0.0000000000000e+00
6.2831853071796e-01
1.2566370614359e+00
1.8849555921539e+00
2.5132741228718e+00
3.1415926535898e+00
3.7699111843078e+00
4.3982297150257e+00
5.0265482457437e+00
5.6548667764616e+00
6.2831853071796e+00
